0 6 6 6 6 6 6 6 6 6 6 6 6 
6 0 8 8 5 10 11 8 10 13 17 9 8 
6 8 0 10 5 8 1 10 1 1 1 14 8 
6 8 10 0 9 5 5 4 12 11 13 12 8 
6 5 5 9 0 1 5 3 5 5 5 5 8 
6 10 8 5 1 0 9 1 10 11 7 11 8 
6 11 1 5 5 9 0 2 3 12 3 14 8 
6 8 10 4 3 1 2 0 6 9 11 3 8 
6 10 1 12 5 10 3 6 0 11 3 11 8 
6 13 1 11 5 11 12 9 11 0 2 10 8 
6 17 1 13 5 7 3 11 3 2 0 19 8 
6 9 14 12 5 11 14 3 11 10 19 0 8 
6 8 8 8 8 8 8 8 8 8 8 8 0 